maximize
OBJ:100x0 + 100x1 + 100x2 + 100x3 + 100x4 + 100x5 + 100x6 + 100x7 + 100x8 + 100x9 + 100x10 + 100x11 + 100x12 + 100x13 + 100x14 + 100x15 + 100x16 + 100x17 + 100x18 + 100x19 + 100x20 + 100x21 + 100x22 + 100x23 + 100x24 + 100x25 + 100x26 + 100x27 + 100x28 + 100x29 + 100x30 + 100x31 + 100x32 + 100x33 + 100x34 + 100x35 + 100x36 + 100x37 + 100x38 + 100x39 + 100x40 + 100x41 + 100x42 + 100x43 + 100x44 + 100x45 + 100x46 + 100x47 + 100x48 + 100x49 + 100x50 + 100x51 + 100x52 + 100x53 + 100x54 + 100x55 + 100x56 + 100x57 + 100x58 + 100x59 + 100x60 + 100x61 + 100x62 + 100x63 + 100x64 + 100x65 + 100x66 - y7_17 - y15_30 - y26_30 - y55_66 - y18_26 - y26_39 - y17_58 - y28_58 - y7_35 - y8_9 - y48_63 - y6_57 - y11_23 - y40_59 - y10_27 - y41_42 - y33_38 - y2_32 - y2_41 - y10_54 - y33_56 - y14_33 - y3_42 - y14_42 - y14_51 - y15_16 - y36_48 - y17_53 - y7_30 - y5_60 - y29_36 - y48_58 - y21_50 - y29_63 - y25_29 - y54_65 - y10_40 - y10_49 - y44_51 - y2_45 - y3_10 - y2_54 - y32_64 - y43_64 - y36_52 - y55_65 - y5_46 - y28_48 - y29_31 - y9_62 - y6_38 - y21_36 - y21_45 - y6_56 - y40_58 - y10_26 - y39_62 - y54_60 - y33_37 - y10_44 - y2_40 - y32_41 - y14_23 - y13_55 - y24_55 - y14_32 - y16_51 - y1_62 - y13_64 - y35_64 - y5_41 - y17_43 - y47_56 - y58_62 - y9_57 - y40_44 - y2_17 - y20_62 - y23_58 - y13_32 - y4_63 - y43_45 - y13_41 - y24_41 - y32_54 - y13_50 - y16_46 - y1_57 - y13_59 - y24_59 - y16_55 - y17_20 - y9_25 - y5_45 - y6_10 - y28_47 - y28_56 - y6_19 - y5_63 - y27_60 - y50_62 - y6_37 - y42_58 - y6_46 - y2_3 - y20_39 - y62_63 - y12_44 - y2_21 - y31_57 - y54_59 - y12_53 - y23_53 - y23_62 - y24_27 - y13_45 - y24_45 - y32_58 - y16_41 - y24_63 - y16_59 - y5_22 - y17_24 - y46_60 - y57_60 - y17_33 - y38_65 - y17_42 - y5_58 - y6_23 - y27_55 - y6_32 - y50_66 - y30_60 - y0_65 - y10_11 - y39_56 - y12_39 - y20_52 - y23_48 - y20_61 - y31_61 - y13_22 - y4_62 - y24_40 - y16_36 - y24_49 - y5_8 - y16_54 - y5_17 - y1_65 - y17_19 - y49_60 - y27_41 - y6_18 - y50_52 - y19_46 - y8_55 - y8_64 - y19_64 - y30_64 - y39_42 - y12_25 - y23_25 - y12_34 - y23_34 - y2_11 - y31_47 - y39_60 - y31_65 - y4_48 - y1_24 - y24_26 - y1_33 - y13_35 - y4_66 - y5_12 - y9_10 - y9_19 - y15_53 - y7_58 - y27_36 - y6_13 - y30_41 - y27_54 - y11_37 - y8_59 - y19_59 - y42_61 - y0_55 - y20_42 - y4_25 - y23_38 - y23_47 - y1_10 - y13_21 - y53_57 - y1_28 - y13_30 - y64_66 - y34_62 - y1_37 - y37_58 - y3_65 - y14_65 - y46_54 - y9_14 - y26_48 - y46_63 - y7_44 - y7_53 - y15_66 - y18_62 - y27_49 - y0_32 - y19_45 - y42_47 - y27_58 - y19_54 - y12_15 - y8_63 - y20_28 - y4_11 - y39_41 - y52_60 - y20_37 - y4_20 - y23_33 - y44_65 - y4_38 - y13_16 - y45_48 - y37_44 - y22_55 - y45_66 - y15_34 - y26_34 - y5_11 - y15_43 - y26_43 - y7_39 - y49_54 - y7_48 - y18_48 - y26_61 - y38_63 - y7_57 - y11_18 - y18_66 - y19_31 - y30_31 - y0_27 - y63_65 - y27_53 - y11_36 - y30_58 - y20_23 - y0_54 - y12_19 - y33_51 - y23_28 - y12_37 - y22_41 - y1_18 - y37_39 - y45_52 - y14_46 - y22_59 - y34_61 - y56_61 - y14_55 - y3_64 - y37_66 - y7_25 - y18_25 - y15_38 - y38_40 - y7_34 - y26_47 - y26_56 - y26_65 - y27_30 - y0_13 - y48_62 - y27_39 - y19_35 - y0_31 - y8_44 - y21_63 - y41_50 - y44_46 - y44_55 - y22_36 - y1_13 - y45_47 - y3_41 - y37_52 - y3_59 - y7_20 - y26_42 - y7_47 - y19_21 - y0_17 - y40_53 - y8_30 - y63_64 - y21_58 - y41_54 - y25_37 - y41_63 - y2_44 - y44_59 - y22_31 - y3_27 - y34_51 - y37_47 - y3_54 - y14_54 - y7_15 - y3_63 - y15_28 - y26_28 - y55_64 - y18_24 - y36_60 - y7_33 - y17_65 - y28_65 - y7_42 - y48_61 - y0_21 - y40_57 - y21_53 - y4_9 - y33_45 - y41_58 - y2_39 - y52_58 - y10_52 - y2_48 - y3_13 - y33_63 - y22_26 - y2_57 - y22_35 - y2_66 - y14_31 - y22_44 - y14_40 - y37_42 - y18_19 - y47_55 - y15_32 - y26_32 - y7_28 - y18_28 - y9_56 - y8_11 - y9_65 - y0_7 - y6_41 - y48_56 - y0_16 - y40_61 - y10_20 - y21_66 - y25_45 - y51_57 - y2_52 - y3_17 - y2_61 - y32_62 - y13_58 - y3_44 - y16_63 - y7_23 - y18_23 - y47_59 - y6_27 - y21_25 - y0_2 - y21_34 - y10_15 - y2_38 - y10_51 - y51_52 - y3_12 - y51_61 - y14_21 - y32_57 - y35_53 - y14_30 - y13_62 - y36_45 - y17_41 - y9_37 - y6_31 - y29_33 - y29_42 - y2_6 - y2_15 - y20_60 - y2_33 - y12_65 - y2_42 - y3_7 - y24_39 - y32_52 - y51_65 - y32_61 - y35_57 - y16_53 - y36_40 - y17_36 - y5_43 - y6_8 - y5_52 - y5_61 - y6_26 - y28_63 - y50_60 - y6_35 - y6_44 - y2_10 - y10_23 - y10_32 - y12_51 - y2_28 - y23_60 - y13_34 - y4_65 - y51_60 - y16_39 - y24_52 - y32_65 - y16_48 - y43_65 - y1_59 - y13_61 - y24_61 - y16_57 - y17_22 - y9_18 - y5_29 - y5_38 - y3_56 - y28_40 - y5_47 - y6_21 - y58_59 - y6_30 - y42_51 - y42_60 - y0_63 - y11_63 - y39_45 - y2_5 - y31_41 - y2_23 - y20_59 - y23_55 - y32_33 - y16_25 - y51_55 - y1_36 - y13_38 - y32_51 - y16_34 - y35_56 - y16_52 - y65_66 - y9_13 - y46_62 - y9_22 - y5_42 - y6_7 - y42_46 - y19_53 - y30_53 - y42_55 - y30_62 - y31_36 - y10_13 - y2_9 - y20_45 - y31_45 - y23_41 - y4_37 - y4_46 - y12_59 - y53_60 - y16_20 - y1_31 - y24_33 - y4_64 - y16_29 - y43_46 - y1_49 - y24_51 - y16_47 - y1_58 - y9_17 - y38_53 - y28_30 - y46_66 - y27_34 - y6_20 - y8_39 - y19_48 - y42_50 - y27_61 - y42_59 - y0_53 - y8_66 - y39_44 - y23_27 - y31_40 - y12_36 - y20_49 - y31_49 - y12_54 - y13_28 - y16_24 - y34_60 - y1_35 - y24_37 - y16_33 - y9_12 - y38_48 - y5_23 - y26_55 - y38_57 - y18_51 - y27_29 - y18_60 - y27_38 - y19_34 - y8_43 - y30_43 - y27_56 - y42_54 - y27_65 - y30_61 - y20_44 - y12_40 - y1_3 - y1_12 - y4_54 - y45_55 - y37_51 - y34_64 - y1_39 - y26_41 - y46_56 - y9_16 - y18_46 - y49_61 - y7_55 - y19_29 - y0_25 - y27_51 - y8_47 - y30_47 - y42_49 - y60_66 - y41_62 - y4_22 - y44_58 - y23_35 - y4_31 - y10_65 - y4_40 - y34_41 - y13_18 - y16_23 - y22_57 - y56_59 - y14_62 - y26_27 - y37_64 - y26_36 - y46_51 - y15_54 - y26_63 - y7_59 - y8_24 - y18_59 - y0_20 - y8_33 - y30_33 - y11_29 - y30_42 - y0_47 - y60_61 - y4_8 - y12_21 - y4_26 - y33_62 - y44_62 - y1_2 - y34_36 - y1_11 - y2_65 - y34_45 - y1_20 - y53_58 - y3_48 - y22_61 - y34_63 - y15_22 - y3_66 - y38_42 - y18_36 - y7_45 - y15_58 - y8_19 - y0_15 - y0_24 - y40_60 - y30_37 - y21_65 - y33_39 - y10_46 - y33_48 - y52_61 - y2_51 - y25_53 - y33_66 - y2_60 - y3_34 - y34_49 - y3_52 - y15_17 - y22_65 - y37_54 - y7_13 - y15_35 - y18_31 - y7_40 - y6_53 - y11_19 - y29_55 - y40_55 - y11_28 - y63_66 - y21_60 - y10_41 - y33_43 - y44_52 - y52_65 - y25_48 - y25_57 - y14_29 - y3_38 - y37_40 - y22_51 - y7_8 - y14_56
 Subject to
C1: x0+x2-y0_2 <=1 
C2: x0+x4 <=1 
C3: x0+x7-y0_7 <=1 
C4: x0+x10 <=1 
C5: x0+x11 <=1 
C6: x0+x12 <=1 
C7: x0+x13-y0_13 <=1 
C8: x0+x15-y0_15 <=1 
C9: x0+x16-y0_16 <=1 
C10: x0+x17-y0_17 <=1 
C11: x0+x18 <=1 
C12: x0+x20-y0_20 <=1 
C13: x0+x21-y0_21 <=1 
C14: x0+x24-y0_24 <=1 
C15: x0+x25-y0_25 <=1 
C16: x0+x27-y0_27 <=1 
C17: x0+x31-y0_31 <=1 
C18: x0+x32-y0_32 <=1 
C19: x0+x33 <=1 
C20: x0+x36 <=1 
C21: x0+x37 <=1 
C22: x0+x39 <=1 
C23: x0+x42 <=1 
C24: x0+x47-y0_47 <=1 
C25: x0+x49 <=1 
C26: x0+x50 <=1 
C27: x0+x53-y0_53 <=1 
C28: x0+x54-y0_54 <=1 
C29: x0+x55-y0_55 <=1 
C30: x0+x57 <=1 
C31: x0+x62 <=1 
C32: x0+x63-y0_63 <=1 
C33: x0+x65-y0_65 <=1 
C34: x0+x66 <=1 
C35: x1+x2-y1_2 <=1 
C36: x1+x3-y1_3 <=1 
C37: x1+x7 <=1 
C38: x1+x9 <=1 
C39: x1+x10-y1_10 <=1 
C40: x1+x11-y1_11 <=1 
C41: x1+x12-y1_12 <=1 
C42: x1+x13-y1_13 <=1 
C43: x1+x18-y1_18 <=1 
C44: x1+x19 <=1 
C45: x1+x20-y1_20 <=1 
C46: x1+x21 <=1 
C47: x1+x24-y1_24 <=1 
C48: x1+x27 <=1 
C49: x1+x28-y1_28 <=1 
C50: x1+x29 <=1 
C51: x1+x31-y1_31 <=1 
C52: x1+x32 <=1 
C53: x1+x33-y1_33 <=1 
C54: x1+x34 <=1 
C55: x1+x35-y1_35 <=1 
C56: x1+x36-y1_36 <=1 
C57: x1+x37-y1_37 <=1 
C58: x1+x38 <=1 
C59: x1+x39-y1_39 <=1 
C60: x1+x41 <=1 
C61: x1+x43 <=1 
C62: x1+x48 <=1 
C63: x1+x49-y1_49 <=1 
C64: x1+x50 <=1 
C65: x1+x52 <=1 
C66: x1+x53 <=1 
C67: x1+x55 <=1 
C68: x1+x57-y1_57 <=1 
C69: x1+x58-y1_58 <=1 
C70: x1+x59-y1_59 <=1 
C71: x1+x60 <=1 
C72: x1+x62-y1_62 <=1 
C73: x1+x65-y1_65 <=1 
C74: x2+x3-y2_3 <=1 
C75: x2+x4 <=1 
C76: x2+x5-y2_5 <=1 
C77: x2+x6-y2_6 <=1 
C78: x2+x7 <=1 
C79: x2+x9-y2_9 <=1 
C80: x2+x10-y2_10 <=1 
C81: x2+x11-y2_11 <=1 
C82: x2+x13 <=1 
C83: x2+x14 <=1 
C84: x2+x15-y2_15 <=1 
C85: x2+x16 <=1 
C86: x2+x17-y2_17 <=1 
C87: x2+x18 <=1 
C88: x2+x19 <=1 
C89: x2+x21-y2_21 <=1 
C90: x2+x23-y2_23 <=1 
C91: x2+x27 <=1 
C92: x2+x28-y2_28 <=1 
C93: x2+x29 <=1 
C94: x2+x30 <=1 
C95: x2+x32-y2_32 <=1 
C96: x2+x33-y2_33 <=1 
C97: x2+x34 <=1 
C98: x2+x36 <=1 
C99: x2+x38-y2_38 <=1 
C100: x2+x39-y2_39 <=1 
C101: x2+x40-y2_40 <=1 
C102: x2+x41-y2_41 <=1 
C103: x2+x42-y2_42 <=1 
C104: x2+x43 <=1 
C105: x2+x44-y2_44 <=1 
C106: x2+x45-y2_45 <=1 
C107: x2+x46 <=1 
C108: x2+x47 <=1 
C109: x2+x48-y2_48 <=1 
C110: x2+x49 <=1 
C111: x2+x51-y2_51 <=1 
C112: x2+x52-y2_52 <=1 
C113: x2+x54-y2_54 <=1 
C114: x2+x56 <=1 
C115: x2+x57-y2_57 <=1 
C116: x2+x59 <=1 
C117: x2+x60-y2_60 <=1 
C118: x2+x61-y2_61 <=1 
C119: x2+x63 <=1 
C120: x2+x64 <=1 
C121: x2+x65-y2_65 <=1 
C122: x2+x66-y2_66 <=1 
C123: x3+x4 <=1 
C124: x3+x5 <=1 
C125: x3+x6 <=1 
C126: x3+x7-y3_7 <=1 
C127: x3+x8 <=1 
C128: x3+x10-y3_10 <=1 
C129: x3+x11 <=1 
C130: x3+x12-y3_12 <=1 
C131: x3+x13-y3_13 <=1 
C132: x3+x14 <=1 
C133: x3+x17-y3_17 <=1 
C134: x3+x18 <=1 
C135: x3+x21 <=1 
C136: x3+x27-y3_27 <=1 
C137: x3+x29 <=1 
C138: x3+x30 <=1 
C139: x3+x31 <=1 
C140: x3+x32 <=1 
C141: x3+x34-y3_34 <=1 
C142: x3+x36 <=1 
C143: x3+x38-y3_38 <=1 
C144: x3+x39 <=1 
C145: x3+x40 <=1 
C146: x3+x41-y3_41 <=1 
C147: x3+x42-y3_42 <=1 
C148: x3+x44-y3_44 <=1 
C149: x3+x46 <=1 
C150: x3+x47 <=1 
C151: x3+x48-y3_48 <=1 
C152: x3+x50 <=1 
C153: x3+x52-y3_52 <=1 
C154: x3+x54-y3_54 <=1 
C155: x3+x56-y3_56 <=1 
C156: x3+x58 <=1 
C157: x3+x59-y3_59 <=1 
C158: x3+x61 <=1 
C159: x3+x63-y3_63 <=1 
C160: x3+x64-y3_64 <=1 
C161: x3+x65-y3_65 <=1 
C162: x3+x66-y3_66 <=1 
C163: x4+x7 <=1 
C164: x4+x8-y4_8 <=1 
C165: x4+x9-y4_9 <=1 
C166: x4+x10 <=1 
C167: x4+x11-y4_11 <=1 
C168: x4+x13 <=1 
C169: x4+x14 <=1 
C170: x4+x16 <=1 
C171: x4+x17 <=1 
C172: x4+x18 <=1 
C173: x4+x19 <=1 
C174: x4+x20-y4_20 <=1 
C175: x4+x22-y4_22 <=1 
C176: x4+x25-y4_25 <=1 
C177: x4+x26-y4_26 <=1 
C178: x4+x28 <=1 
C179: x4+x29 <=1 
C180: x4+x31-y4_31 <=1 
C181: x4+x34 <=1 
C182: x4+x36 <=1 
C183: x4+x37-y4_37 <=1 
C184: x4+x38-y4_38 <=1 
C185: x4+x40-y4_40 <=1 
C186: x4+x41 <=1 
C187: x4+x42 <=1 
C188: x4+x43 <=1 
C189: x4+x44 <=1 
C190: x4+x46-y4_46 <=1 
C191: x4+x47 <=1 
C192: x4+x48-y4_48 <=1 
C193: x4+x49 <=1 
C194: x4+x51 <=1 
C195: x4+x52 <=1 
C196: x4+x53 <=1 
C197: x4+x54-y4_54 <=1 
C198: x4+x55 <=1 
C199: x4+x59 <=1 
C200: x4+x61 <=1 
C201: x4+x62-y4_62 <=1 
C202: x4+x63-y4_63 <=1 
C203: x4+x64-y4_64 <=1 
C204: x4+x65-y4_65 <=1 
C205: x4+x66-y4_66 <=1 
C206: x5+x6 <=1 
C207: x5+x7 <=1 
C208: x5+x8-y5_8 <=1 
C209: x5+x9 <=1 
C210: x5+x11-y5_11 <=1 
C211: x5+x12-y5_12 <=1 
C212: x5+x15 <=1 
C213: x5+x17-y5_17 <=1 
C214: x5+x21 <=1 
C215: x5+x22-y5_22 <=1 
C216: x5+x23-y5_23 <=1 
C217: x5+x28 <=1 
C218: x5+x29-y5_29 <=1 
C219: x5+x32 <=1 
C220: x5+x35 <=1 
C221: x5+x36 <=1 
C222: x5+x38-y5_38 <=1 
C223: x5+x40 <=1 
C224: x5+x41-y5_41 <=1 
C225: x5+x42-y5_42 <=1 
C226: x5+x43-y5_43 <=1 
C227: x5+x44 <=1 
C228: x5+x45-y5_45 <=1 
C229: x5+x46-y5_46 <=1 
C230: x5+x47-y5_47 <=1 
C231: x5+x48 <=1 
C232: x5+x52-y5_52 <=1 
C233: x5+x53 <=1 
C234: x5+x56 <=1 
C235: x5+x58-y5_58 <=1 
C236: x5+x59 <=1 
C237: x5+x60-y5_60 <=1 
C238: x5+x61-y5_61 <=1 
C239: x5+x63-y5_63 <=1 
C240: x5+x64 <=1 
C241: x5+x65 <=1 
C242: x5+x66 <=1 
C243: x6+x7-y6_7 <=1 
C244: x6+x8-y6_8 <=1 
C245: x6+x9 <=1 
C246: x6+x10-y6_10 <=1 
C247: x6+x13-y6_13 <=1 
C248: x6+x15 <=1 
C249: x6+x18-y6_18 <=1 
C250: x6+x19-y6_19 <=1 
C251: x6+x20-y6_20 <=1 
C252: x6+x21-y6_21 <=1 
C253: x6+x22 <=1 
C254: x6+x23-y6_23 <=1 
C255: x6+x25 <=1 
C256: x6+x26-y6_26 <=1 
C257: x6+x27-y6_27 <=1 
C258: x6+x30-y6_30 <=1 
C259: x6+x31-y6_31 <=1 
C260: x6+x32-y6_32 <=1 
C261: x6+x35-y6_35 <=1 
C262: x6+x37-y6_37 <=1 
C263: x6+x38-y6_38 <=1 
C264: x6+x39 <=1 
C265: x6+x41-y6_41 <=1 
C266: x6+x44-y6_44 <=1 
C267: x6+x46-y6_46 <=1 
C268: x6+x47 <=1 
C269: x6+x50 <=1 
C270: x6+x53-y6_53 <=1 
C271: x6+x54 <=1 
C272: x6+x56-y6_56 <=1 
C273: x6+x57-y6_57 <=1 
C274: x6+x60 <=1 
C275: x6+x62 <=1 
C276: x6+x63 <=1 
C277: x7+x8-y7_8 <=1 
C278: x7+x10 <=1 
C279: x7+x12 <=1 
C280: x7+x13-y7_13 <=1 
C281: x7+x14 <=1 
C282: x7+x15-y7_15 <=1 
C283: x7+x16 <=1 
C284: x7+x17-y7_17 <=1 
C285: x7+x18 <=1 
C286: x7+x20-y7_20 <=1 
C287: x7+x21 <=1 
C288: x7+x23-y7_23 <=1 
C289: x7+x25-y7_25 <=1 
C290: x7+x28-y7_28 <=1 
C291: x7+x30-y7_30 <=1 
C292: x7+x31 <=1 
C293: x7+x33-y7_33 <=1 
C294: x7+x34-y7_34 <=1 
C295: x7+x35-y7_35 <=1 
C296: x7+x37 <=1 
C297: x7+x39-y7_39 <=1 
C298: x7+x40-y7_40 <=1 
C299: x7+x42-y7_42 <=1 
C300: x7+x43 <=1 
C301: x7+x44-y7_44 <=1 
C302: x7+x45-y7_45 <=1 
C303: x7+x46 <=1 
C304: x7+x47-y7_47 <=1 
C305: x7+x48-y7_48 <=1 
C306: x7+x50 <=1 
C307: x7+x51 <=1 
C308: x7+x52 <=1 
C309: x7+x53-y7_53 <=1 
C310: x7+x54 <=1 
C311: x7+x55-y7_55 <=1 
C312: x7+x56 <=1 
C313: x7+x57-y7_57 <=1 
C314: x7+x58-y7_58 <=1 
C315: x7+x59-y7_59 <=1 
C316: x7+x60 <=1 
C317: x7+x61 <=1 
C318: x7+x62 <=1 
C319: x7+x63 <=1 
C320: x7+x64 <=1 
C321: x7+x66 <=1 
C322: x8+x9-y8_9 <=1 
C323: x8+x11-y8_11 <=1 
C324: x8+x15 <=1 
C325: x8+x16 <=1 
C326: x8+x19-y8_19 <=1 
C327: x8+x22 <=1 
C328: x8+x24-y8_24 <=1 
C329: x8+x26 <=1 
C330: x8+x27 <=1 
C331: x8+x30-y8_30 <=1 
C332: x8+x33-y8_33 <=1 
C333: x8+x35 <=1 
C334: x8+x36 <=1 
C335: x8+x39-y8_39 <=1 
C336: x8+x43-y8_43 <=1 
C337: x8+x44-y8_44 <=1 
C338: x8+x47-y8_47 <=1 
C339: x8+x48 <=1 
C340: x8+x52 <=1 
C341: x8+x55-y8_55 <=1 
C342: x8+x57 <=1 
C343: x8+x59-y8_59 <=1 
C344: x8+x63-y8_63 <=1 
C345: x8+x64-y8_64 <=1 
C346: x8+x66-y8_66 <=1 
C347: x9+x10-y9_10 <=1 
C348: x9+x12-y9_12 <=1 
C349: x9+x13-y9_13 <=1 
C350: x9+x14-y9_14 <=1 
C351: x9+x15 <=1 
C352: x9+x16-y9_16 <=1 
C353: x9+x17-y9_17 <=1 
C354: x9+x18-y9_18 <=1 
C355: x9+x19-y9_19 <=1 
C356: x9+x20 <=1 
C357: x9+x22-y9_22 <=1 
C358: x9+x23 <=1 
C359: x9+x24 <=1 
C360: x9+x25-y9_25 <=1 
C361: x9+x26 <=1 
C362: x9+x30 <=1 
C363: x9+x31 <=1 
C364: x9+x33 <=1 
C365: x9+x36 <=1 
C366: x9+x37-y9_37 <=1 
C367: x9+x38 <=1 
C368: x9+x41 <=1 
C369: x9+x43 <=1 
C370: x9+x45 <=1 
C371: x9+x46 <=1 
C372: x9+x47 <=1 
C373: x9+x49 <=1 
C374: x9+x50 <=1 
C375: x9+x53 <=1 
C376: x9+x56-y9_56 <=1 
C377: x9+x57-y9_57 <=1 
C378: x9+x58 <=1 
C379: x9+x59 <=1 
C380: x9+x61 <=1 
C381: x9+x62-y9_62 <=1 
C382: x9+x65-y9_65 <=1 
C383: x9+x66 <=1 
C384: x10+x11-y10_11 <=1 
C385: x10+x13-y10_13 <=1 
C386: x10+x15-y10_15 <=1 
C387: x10+x20-y10_20 <=1 
C388: x10+x23-y10_23 <=1 
C389: x10+x25 <=1 
C390: x10+x26-y10_26 <=1 
C391: x10+x27-y10_27 <=1 
C392: x10+x28 <=1 
C393: x10+x29 <=1 
C394: x10+x32-y10_32 <=1 
C395: x10+x33 <=1 
C396: x10+x37 <=1 
C397: x10+x38 <=1 
C398: x10+x40-y10_40 <=1 
C399: x10+x41-y10_41 <=1 
C400: x10+x44-y10_44 <=1 
C401: x10+x46-y10_46 <=1 
C402: x10+x49-y10_49 <=1 
C403: x10+x50 <=1 
C404: x10+x51-y10_51 <=1 
C405: x10+x52-y10_52 <=1 
C406: x10+x54-y10_54 <=1 
C407: x10+x59 <=1 
C408: x10+x62 <=1 
C409: x10+x63 <=1 
C410: x10+x64 <=1 
C411: x10+x65-y10_65 <=1 
C412: x10+x66 <=1 
C413: x11+x14 <=1 
C414: x11+x18-y11_18 <=1 
C415: x11+x19-y11_19 <=1 
C416: x11+x20 <=1 
C417: x11+x21 <=1 
C418: x11+x22 <=1 
C419: x11+x23-y11_23 <=1 
C420: x11+x25 <=1 
C421: x11+x26 <=1 
C422: x11+x28-y11_28 <=1 
C423: x11+x29-y11_29 <=1 
C424: x11+x30 <=1 
C425: x11+x32 <=1 
C426: x11+x36-y11_36 <=1 
C427: x11+x37-y11_37 <=1 
C428: x11+x39 <=1 
C429: x11+x40 <=1 
C430: x11+x42 <=1 
C431: x11+x44 <=1 
C432: x11+x46 <=1 
C433: x11+x48 <=1 
C434: x11+x50 <=1 
C435: x11+x54 <=1 
C436: x11+x55 <=1 
C437: x11+x57 <=1 
C438: x11+x58 <=1 
C439: x11+x59 <=1 
C440: x11+x61 <=1 
C441: x11+x62 <=1 
C442: x11+x63-y11_63 <=1 
C443: x11+x65 <=1 
C444: x12+x14 <=1 
C445: x12+x15-y12_15 <=1 
C446: x12+x16 <=1 
C447: x12+x17 <=1 
C448: x12+x19-y12_19 <=1 
C449: x12+x21-y12_21 <=1 
C450: x12+x22 <=1 
C451: x12+x24 <=1 
C452: x12+x25-y12_25 <=1 
C453: x12+x27 <=1 
C454: x12+x29 <=1 
C455: x12+x32 <=1 
C456: x12+x34-y12_34 <=1 
C457: x12+x35 <=1 
C458: x12+x36-y12_36 <=1 
C459: x12+x37-y12_37 <=1 
C460: x12+x39-y12_39 <=1 
C461: x12+x40-y12_40 <=1 
C462: x12+x41 <=1 
C463: x12+x42 <=1 
C464: x12+x43 <=1 
C465: x12+x44-y12_44 <=1 
C466: x12+x50 <=1 
C467: x12+x51-y12_51 <=1 
C468: x12+x53-y12_53 <=1 
C469: x12+x54-y12_54 <=1 
C470: x12+x55 <=1 
C471: x12+x56 <=1 
C472: x12+x57 <=1 
C473: x12+x58 <=1 
C474: x12+x59-y12_59 <=1 
C475: x12+x60 <=1 
C476: x12+x63 <=1 
C477: x12+x64 <=1 
C478: x12+x65-y12_65 <=1 
C479: x12+x66 <=1 
C480: x13+x14 <=1 
C481: x13+x16-y13_16 <=1 
C482: x13+x17 <=1 
C483: x13+x18-y13_18 <=1 
C484: x13+x21-y13_21 <=1 
C485: x13+x22-y13_22 <=1 
C486: x13+x23 <=1 
C487: x13+x24 <=1 
C488: x13+x28-y13_28 <=1 
C489: x13+x30-y13_30 <=1 
C490: x13+x32-y13_32 <=1 
C491: x13+x34-y13_34 <=1 
C492: x13+x35-y13_35 <=1 
C493: x13+x36 <=1 
C494: x13+x38-y13_38 <=1 
C495: x13+x41-y13_41 <=1 
C496: x13+x42 <=1 
C497: x13+x45-y13_45 <=1 
C498: x13+x46 <=1 
C499: x13+x48 <=1 
C500: x13+x49 <=1 
C501: x13+x50-y13_50 <=1 
C502: x13+x54 <=1 
C503: x13+x55-y13_55 <=1 
C504: x13+x56 <=1 
C505: x13+x58-y13_58 <=1 
C506: x13+x59-y13_59 <=1 
C507: x13+x61-y13_61 <=1 
C508: x13+x62-y13_62 <=1 
C509: x13+x63 <=1 
C510: x13+x64-y13_64 <=1 
C511: x14+x15 <=1 
C512: x14+x16 <=1 
C513: x14+x18 <=1 
C514: x14+x21-y14_21 <=1 
C515: x14+x22 <=1 
C516: x14+x23-y14_23 <=1 
C517: x14+x27 <=1 
C518: x14+x29-y14_29 <=1 
C519: x14+x30-y14_30 <=1 
C520: x14+x31-y14_31 <=1 
C521: x14+x32-y14_32 <=1 
C522: x14+x33-y14_33 <=1 
C523: x14+x34 <=1 
C524: x14+x35 <=1 
C525: x14+x36 <=1 
C526: x14+x40-y14_40 <=1 
C527: x14+x41 <=1 
C528: x14+x42-y14_42 <=1 
C529: x14+x45 <=1 
C530: x14+x46-y14_46 <=1 
C531: x14+x47 <=1 
C532: x14+x51-y14_51 <=1 
C533: x14+x54-y14_54 <=1 
C534: x14+x55-y14_55 <=1 
C535: x14+x56-y14_56 <=1 
C536: x14+x58 <=1 
C537: x14+x62-y14_62 <=1 
C538: x14+x65-y14_65 <=1 
C539: x15+x16-y15_16 <=1 
C540: x15+x17-y15_17 <=1 
C541: x15+x20 <=1 
C542: x15+x21 <=1 
C543: x15+x22-y15_22 <=1 
C544: x15+x23 <=1 
C545: x15+x25 <=1 
C546: x15+x28-y15_28 <=1 
C547: x15+x29 <=1 
C548: x15+x30-y15_30 <=1 
C549: x15+x31 <=1 
C550: x15+x32-y15_32 <=1 
C551: x15+x34-y15_34 <=1 
C552: x15+x35-y15_35 <=1 
C553: x15+x36 <=1 
C554: x15+x38-y15_38 <=1 
C555: x15+x40 <=1 
C556: x15+x43-y15_43 <=1 
C557: x15+x44 <=1 
C558: x15+x45 <=1 
C559: x15+x46 <=1 
C560: x15+x47 <=1 
C561: x15+x48 <=1 
C562: x15+x50 <=1 
C563: x15+x51 <=1 
C564: x15+x53-y15_53 <=1 
C565: x15+x54-y15_54 <=1 
C566: x15+x58-y15_58 <=1 
C567: x15+x59 <=1 
C568: x15+x60 <=1 
C569: x15+x62 <=1 
C570: x15+x63 <=1 
C571: x15+x65 <=1 
C572: x15+x66-y15_66 <=1 
C573: x16+x17 <=1 
C574: x16+x18 <=1 
C575: x16+x20-y16_20 <=1 
C576: x16+x21 <=1 
C577: x16+x22 <=1 
C578: x16+x23-y16_23 <=1 
C579: x16+x24-y16_24 <=1 
C580: x16+x25-y16_25 <=1 
C581: x16+x26 <=1 
C582: x16+x28 <=1 
C583: x16+x29-y16_29 <=1 
C584: x16+x30 <=1 
C585: x16+x31 <=1 
C586: x16+x32 <=1 
C587: x16+x33-y16_33 <=1 
C588: x16+x34-y16_34 <=1 
C589: x16+x36-y16_36 <=1 
C590: x16+x37 <=1 
C591: x16+x38 <=1 
C592: x16+x39-y16_39 <=1 
C593: x16+x41-y16_41 <=1 
C594: x16+x42 <=1 
C595: x16+x45 <=1 
C596: x16+x46-y16_46 <=1 
C597: x16+x47-y16_47 <=1 
C598: x16+x48-y16_48 <=1 
C599: x16+x51-y16_51 <=1 
C600: x16+x52-y16_52 <=1 
C601: x16+x53-y16_53 <=1 
C602: x16+x54-y16_54 <=1 
C603: x16+x55-y16_55 <=1 
C604: x16+x57-y16_57 <=1 
C605: x16+x58 <=1 
C606: x16+x59-y16_59 <=1 
C607: x16+x60 <=1 
C608: x16+x61 <=1 
C609: x16+x62 <=1 
C610: x16+x63-y16_63 <=1 
C611: x16+x65 <=1 
C612: x17+x18 <=1 
C613: x17+x19-y17_19 <=1 
C614: x17+x20-y17_20 <=1 
C615: x17+x21 <=1 
C616: x17+x22-y17_22 <=1 
C617: x17+x23 <=1 
C618: x17+x24-y17_24 <=1 
C619: x17+x28 <=1 
C620: x17+x30 <=1 
C621: x17+x33-y17_33 <=1 
C622: x17+x34 <=1 
C623: x17+x36-y17_36 <=1 
C624: x17+x37 <=1 
C625: x17+x38 <=1 
C626: x17+x41-y17_41 <=1 
C627: x17+x42-y17_42 <=1 
C628: x17+x43-y17_43 <=1 
C629: x17+x47 <=1 
C630: x17+x50 <=1 
C631: x17+x53-y17_53 <=1 
C632: x17+x54 <=1 
C633: x17+x56 <=1 
C634: x17+x57 <=1 
C635: x17+x58-y17_58 <=1 
C636: x17+x62 <=1 
C637: x17+x65-y17_65 <=1 
C638: x17+x66 <=1 
C639: x18+x19-y18_19 <=1 
C640: x18+x22 <=1 
C641: x18+x23-y18_23 <=1 
C642: x18+x24-y18_24 <=1 
C643: x18+x25-y18_25 <=1 
C644: x18+x26-y18_26 <=1 
C645: x18+x28-y18_28 <=1 
C646: x18+x29 <=1 
C647: x18+x30 <=1 
C648: x18+x31-y18_31 <=1 
C649: x18+x32 <=1 
C650: x18+x33 <=1 
C651: x18+x34 <=1 
C652: x18+x35 <=1 
C653: x18+x36-y18_36 <=1 
C654: x18+x39 <=1 
C655: x18+x40 <=1 
C656: x18+x41 <=1 
C657: x18+x42 <=1 
C658: x18+x44 <=1 
C659: x18+x45 <=1 
C660: x18+x46-y18_46 <=1 
C661: x18+x47 <=1 
C662: x18+x48-y18_48 <=1 
C663: x18+x50 <=1 
C664: x18+x51-y18_51 <=1 
C665: x18+x56 <=1 
C666: x18+x59-y18_59 <=1 
C667: x18+x60-y18_60 <=1 
C668: x18+x61 <=1 
C669: x18+x62-y18_62 <=1 
C670: x18+x63 <=1 
C671: x18+x64 <=1 
C672: x18+x65 <=1 
C673: x18+x66-y18_66 <=1 
C674: x19+x20 <=1 
C675: x19+x21-y19_21 <=1 
C676: x19+x23 <=1 
C677: x19+x27 <=1 
C678: x19+x28 <=1 
C679: x19+x29-y19_29 <=1 
C680: x19+x30 <=1 
C681: x19+x31-y19_31 <=1 
C682: x19+x33 <=1 
C683: x19+x34-y19_34 <=1 
C684: x19+x35-y19_35 <=1 
C685: x19+x36 <=1 
C686: x19+x44 <=1 
C687: x19+x45-y19_45 <=1 
C688: x19+x46-y19_46 <=1 
C689: x19+x48-y19_48 <=1 
C690: x19+x51 <=1 
C691: x19+x53-y19_53 <=1 
C692: x19+x54-y19_54 <=1 
C693: x19+x56 <=1 
C694: x19+x57 <=1 
C695: x19+x59-y19_59 <=1 
C696: x19+x60 <=1 
C697: x19+x64-y19_64 <=1 
C698: x19+x66 <=1 
C699: x20+x22 <=1 
C700: x20+x23-y20_23 <=1 
C701: x20+x27 <=1 
C702: x20+x28-y20_28 <=1 
C703: x20+x30 <=1 
C704: x20+x32 <=1 
C705: x20+x33 <=1 
C706: x20+x34 <=1 
C707: x20+x37-y20_37 <=1 
C708: x20+x38 <=1 
C709: x20+x39-y20_39 <=1 
C710: x20+x40 <=1 
C711: x20+x42-y20_42 <=1 
C712: x20+x44-y20_44 <=1 
C713: x20+x45-y20_45 <=1 
C714: x20+x49-y20_49 <=1 
C715: x20+x50 <=1 
C716: x20+x52-y20_52 <=1 
C717: x20+x54 <=1 
C718: x20+x58 <=1 
C719: x20+x59-y20_59 <=1 
C720: x20+x60-y20_60 <=1 
C721: x20+x61-y20_61 <=1 
C722: x20+x62-y20_62 <=1 
C723: x21+x22 <=1 
C724: x21+x23 <=1 
C725: x21+x24 <=1 
C726: x21+x25-y21_25 <=1 
C727: x21+x26 <=1 
C728: x21+x33 <=1 
C729: x21+x34-y21_34 <=1 
C730: x21+x36-y21_36 <=1 
C731: x21+x41 <=1 
C732: x21+x43 <=1 
C733: x21+x45-y21_45 <=1 
C734: x21+x49 <=1 
C735: x21+x50-y21_50 <=1 
C736: x21+x51 <=1 
C737: x21+x52 <=1 
C738: x21+x53-y21_53 <=1 
C739: x21+x57 <=1 
C740: x21+x58-y21_58 <=1 
C741: x21+x60-y21_60 <=1 
C742: x21+x62 <=1 
C743: x21+x63-y21_63 <=1 
C744: x21+x65-y21_65 <=1 
C745: x21+x66-y21_66 <=1 
C746: x22+x25 <=1 
C747: x22+x26-y22_26 <=1 
C748: x22+x30 <=1 
C749: x22+x31-y22_31 <=1 
C750: x22+x32 <=1 
C751: x22+x33 <=1 
C752: x22+x34 <=1 
C753: x22+x35-y22_35 <=1 
C754: x22+x36-y22_36 <=1 
C755: x22+x39 <=1 
C756: x22+x41-y22_41 <=1 
C757: x22+x43 <=1 
C758: x22+x44-y22_44 <=1 
C759: x22+x45 <=1 
C760: x22+x46 <=1 
C761: x22+x48 <=1 
C762: x22+x49 <=1 
C763: x22+x51-y22_51 <=1 
C764: x22+x52 <=1 
C765: x22+x53 <=1 
C766: x22+x54 <=1 
C767: x22+x55-y22_55 <=1 
C768: x22+x57-y22_57 <=1 
C769: x22+x59-y22_59 <=1 
C770: x22+x61-y22_61 <=1 
C771: x22+x62 <=1 
C772: x22+x65-y22_65 <=1 
C773: x23+x25-y23_25 <=1 
C774: x23+x26 <=1 
C775: x23+x27-y23_27 <=1 
C776: x23+x28-y23_28 <=1 
C777: x23+x30 <=1 
C778: x23+x31 <=1 
C779: x23+x32 <=1 
C780: x23+x33-y23_33 <=1 
C781: x23+x34-y23_34 <=1 
C782: x23+x35-y23_35 <=1 
C783: x23+x36 <=1 
C784: x23+x37 <=1 
C785: x23+x38-y23_38 <=1 
C786: x23+x40 <=1 
C787: x23+x41-y23_41 <=1 
C788: x23+x42 <=1 
C789: x23+x46 <=1 
C790: x23+x47-y23_47 <=1 
C791: x23+x48-y23_48 <=1 
C792: x23+x49 <=1 
C793: x23+x50 <=1 
C794: x23+x53-y23_53 <=1 
C795: x23+x55-y23_55 <=1 
C796: x23+x57 <=1 
C797: x23+x58-y23_58 <=1 
C798: x23+x60-y23_60 <=1 
C799: x23+x62-y23_62 <=1 
C800: x23+x63 <=1 
C801: x24+x26-y24_26 <=1 
C802: x24+x27-y24_27 <=1 
C803: x24+x28 <=1 
C804: x24+x32 <=1 
C805: x24+x33-y24_33 <=1 
C806: x24+x36 <=1 
C807: x24+x37-y24_37 <=1 
C808: x24+x39-y24_39 <=1 
C809: x24+x40-y24_40 <=1 
C810: x24+x41-y24_41 <=1 
C811: x24+x42 <=1 
C812: x24+x45-y24_45 <=1 
C813: x24+x46 <=1 
C814: x24+x49-y24_49 <=1 
C815: x24+x51-y24_51 <=1 
C816: x24+x52-y24_52 <=1 
C817: x24+x53 <=1 
C818: x24+x55-y24_55 <=1 
C819: x24+x56 <=1 
C820: x24+x57 <=1 
C821: x24+x58 <=1 
C822: x24+x59-y24_59 <=1 
C823: x24+x60 <=1 
C824: x24+x61-y24_61 <=1 
C825: x24+x62 <=1 
C826: x24+x63-y24_63 <=1 
C827: x24+x64 <=1 
C828: x24+x65 <=1 
C829: x24+x66 <=1 
C830: x25+x26 <=1 
C831: x25+x29-y25_29 <=1 
C832: x25+x30 <=1 
C833: x25+x32 <=1 
C834: x25+x33 <=1 
C835: x25+x34 <=1 
C836: x25+x37-y25_37 <=1 
C837: x25+x39 <=1 
C838: x25+x42 <=1 
C839: x25+x43 <=1 
C840: x25+x45-y25_45 <=1 
C841: x25+x48-y25_48 <=1 
C842: x25+x49 <=1 
C843: x25+x51 <=1 
C844: x25+x53-y25_53 <=1 
C845: x25+x54 <=1 
C846: x25+x55 <=1 
C847: x25+x56 <=1 
C848: x25+x57-y25_57 <=1 
C849: x25+x58 <=1 
C850: x25+x60 <=1 
C851: x25+x61 <=1 
C852: x25+x62 <=1 
C853: x25+x63 <=1 
C854: x25+x66 <=1 
C855: x26+x27-y26_27 <=1 
C856: x26+x28-y26_28 <=1 
C857: x26+x29 <=1 
C858: x26+x30-y26_30 <=1 
C859: x26+x31 <=1 
C860: x26+x32-y26_32 <=1 
C861: x26+x33 <=1 
C862: x26+x34-y26_34 <=1 
C863: x26+x36-y26_36 <=1 
C864: x26+x38 <=1 
C865: x26+x39-y26_39 <=1 
C866: x26+x41-y26_41 <=1 
C867: x26+x42-y26_42 <=1 
C868: x26+x43-y26_43 <=1 
C869: x26+x46 <=1 
C870: x26+x47-y26_47 <=1 
C871: x26+x48-y26_48 <=1 
C872: x26+x52 <=1 
C873: x26+x55-y26_55 <=1 
C874: x26+x56-y26_56 <=1 
C875: x26+x57 <=1 
C876: x26+x59 <=1 
C877: x26+x60 <=1 
C878: x26+x61-y26_61 <=1 
C879: x26+x62 <=1 
C880: x26+x63-y26_63 <=1 
C881: x26+x64 <=1 
C882: x26+x65-y26_65 <=1 
C883: x27+x28 <=1 
C884: x27+x29-y27_29 <=1 
C885: x27+x30-y27_30 <=1 
C886: x27+x34-y27_34 <=1 
C887: x27+x36-y27_36 <=1 
C888: x27+x38-y27_38 <=1 
C889: x27+x39-y27_39 <=1 
C890: x27+x40 <=1 
C891: x27+x41-y27_41 <=1 
C892: x27+x42 <=1 
C893: x27+x47 <=1 
C894: x27+x48 <=1 
C895: x27+x49-y27_49 <=1 
C896: x27+x50 <=1 
C897: x27+x51-y27_51 <=1 
C898: x27+x53-y27_53 <=1 
C899: x27+x54-y27_54 <=1 
C900: x27+x55-y27_55 <=1 
C901: x27+x56-y27_56 <=1 
C902: x27+x58-y27_58 <=1 
C903: x27+x60-y27_60 <=1 
C904: x27+x61-y27_61 <=1 
C905: x27+x63 <=1 
C906: x27+x64 <=1 
C907: x27+x65-y27_65 <=1 
C908: x28+x30-y28_30 <=1 
C909: x28+x31 <=1 
C910: x28+x32 <=1 
C911: x28+x34 <=1 
C912: x28+x37 <=1 
C913: x28+x38 <=1 
C914: x28+x40-y28_40 <=1 
C915: x28+x41 <=1 
C916: x28+x42 <=1 
C917: x28+x44 <=1 
C918: x28+x45 <=1 
C919: x28+x47-y28_47 <=1 
C920: x28+x48-y28_48 <=1 
C921: x28+x50 <=1 
C922: x28+x55 <=1 
C923: x28+x56-y28_56 <=1 
C924: x28+x57 <=1 
C925: x28+x58-y28_58 <=1 
C926: x28+x59 <=1 
C927: x28+x63-y28_63 <=1 
C928: x28+x64 <=1 
C929: x28+x65-y28_65 <=1 
C930: x29+x31-y29_31 <=1 
C931: x29+x32 <=1 
C932: x29+x33-y29_33 <=1 
C933: x29+x34 <=1 
C934: x29+x36-y29_36 <=1 
C935: x29+x37 <=1 
C936: x29+x38 <=1 
C937: x29+x40 <=1 
C938: x29+x41 <=1 
C939: x29+x42-y29_42 <=1 
C940: x29+x46 <=1 
C941: x29+x47 <=1 
C942: x29+x48 <=1 
C943: x29+x50 <=1 
C944: x29+x55-y29_55 <=1 
C945: x29+x56 <=1 
C946: x29+x59 <=1 
C947: x29+x62 <=1 
C948: x29+x63-y29_63 <=1 
C949: x29+x65 <=1 
C950: x29+x66 <=1 
C951: x30+x31-y30_31 <=1 
C952: x30+x32 <=1 
C953: x30+x33-y30_33 <=1 
C954: x30+x35 <=1 
C955: x30+x37-y30_37 <=1 
C956: x30+x41-y30_41 <=1 
C957: x30+x42-y30_42 <=1 
C958: x30+x43-y30_43 <=1 
C959: x30+x47-y30_47 <=1 
C960: x30+x48 <=1 
C961: x30+x52 <=1 
C962: x30+x53-y30_53 <=1 
C963: x30+x58-y30_58 <=1 
C964: x30+x60-y30_60 <=1 
C965: x30+x61-y30_61 <=1 
C966: x30+x62-y30_62 <=1 
C967: x30+x64-y30_64 <=1 
C968: x30+x65 <=1 
C969: x30+x66 <=1 
C970: x31+x34 <=1 
C971: x31+x36-y31_36 <=1 
C972: x31+x38 <=1 
C973: x31+x39 <=1 
C974: x31+x40-y31_40 <=1 
C975: x31+x41-y31_41 <=1 
C976: x31+x42 <=1 
C977: x31+x45-y31_45 <=1 
C978: x31+x46 <=1 
C979: x31+x47-y31_47 <=1 
C980: x31+x49-y31_49 <=1 
C981: x31+x50 <=1 
C982: x31+x51 <=1 
C983: x31+x52 <=1 
C984: x31+x53 <=1 
C985: x31+x54 <=1 
C986: x31+x56 <=1 
C987: x31+x57-y31_57 <=1 
C988: x31+x58 <=1 
C989: x31+x61-y31_61 <=1 
C990: x31+x62 <=1 
C991: x31+x63 <=1 
C992: x31+x64 <=1 
C993: x31+x65-y31_65 <=1 
C994: x31+x66 <=1 
C995: x32+x33-y32_33 <=1 
C996: x32+x34 <=1 
C997: x32+x40 <=1 
C998: x32+x41-y32_41 <=1 
C999: x32+x42 <=1 
C1000: x32+x45 <=1 
C1001: x32+x49 <=1 
C1002: x32+x51-y32_51 <=1 
C1003: x32+x52-y32_52 <=1 
C1004: x32+x54-y32_54 <=1 
C1005: x32+x55 <=1 
C1006: x32+x56 <=1 
C1007: x32+x57-y32_57 <=1 
C1008: x32+x58-y32_58 <=1 
C1009: x32+x59 <=1 
C1010: x32+x60 <=1 
C1011: x32+x61-y32_61 <=1 
C1012: x32+x62-y32_62 <=1 
C1013: x32+x64-y32_64 <=1 
C1014: x32+x65-y32_65 <=1 
C1015: x33+x35 <=1 
C1016: x33+x37-y33_37 <=1 
C1017: x33+x38-y33_38 <=1 
C1018: x33+x39-y33_39 <=1 
C1019: x33+x43-y33_43 <=1 
C1020: x33+x45-y33_45 <=1 
C1021: x33+x47 <=1 
C1022: x33+x48-y33_48 <=1 
C1023: x33+x50 <=1 
C1024: x33+x51-y33_51 <=1 
C1025: x33+x54 <=1 
C1026: x33+x56-y33_56 <=1 
C1027: x33+x59 <=1 
C1028: x33+x62-y33_62 <=1 
C1029: x33+x63-y33_63 <=1 
C1030: x33+x64 <=1 
C1031: x33+x66-y33_66 <=1 
C1032: x34+x35 <=1 
C1033: x34+x36-y34_36 <=1 
C1034: x34+x37 <=1 
C1035: x34+x40 <=1 
C1036: x34+x41-y34_41 <=1 
C1037: x34+x45-y34_45 <=1 
C1038: x34+x47 <=1 
C1039: x34+x49-y34_49 <=1 
C1040: x34+x51-y34_51 <=1 
C1041: x34+x53 <=1 
C1042: x34+x55 <=1 
C1043: x34+x58 <=1 
C1044: x34+x60-y34_60 <=1 
C1045: x34+x61-y34_61 <=1 
C1046: x34+x62-y34_62 <=1 
C1047: x34+x63-y34_63 <=1 
C1048: x34+x64-y34_64 <=1 
C1049: x34+x65 <=1 
C1050: x35+x38 <=1 
C1051: x35+x40 <=1 
C1052: x35+x46 <=1 
C1053: x35+x48 <=1 
C1054: x35+x49 <=1 
C1055: x35+x50 <=1 
C1056: x35+x52 <=1 
C1057: x35+x53-y35_53 <=1 
C1058: x35+x56-y35_56 <=1 
C1059: x35+x57-y35_57 <=1 
C1060: x35+x58 <=1 
C1061: x35+x60 <=1 
C1062: x35+x61 <=1 
C1063: x35+x64-y35_64 <=1 
C1064: x36+x37 <=1 
C1065: x36+x38 <=1 
C1066: x36+x40-y36_40 <=1 
C1067: x36+x42 <=1 
C1068: x36+x43 <=1 
C1069: x36+x45-y36_45 <=1 
C1070: x36+x46 <=1 
C1071: x36+x48-y36_48 <=1 
C1072: x36+x50 <=1 
C1073: x36+x51 <=1 
C1074: x36+x52-y36_52 <=1 
C1075: x36+x54 <=1 
C1076: x36+x55 <=1 
C1077: x36+x58 <=1 
C1078: x36+x60-y36_60 <=1 
C1079: x36+x63 <=1 
C1080: x36+x65 <=1 
C1081: x36+x66 <=1 
C1082: x37+x39-y37_39 <=1 
C1083: x37+x40-y37_40 <=1 
C1084: x37+x41 <=1 
C1085: x37+x42-y37_42 <=1 
C1086: x37+x43 <=1 
C1087: x37+x44-y37_44 <=1 
C1088: x37+x47-y37_47 <=1 
C1089: x37+x49 <=1 
C1090: x37+x50 <=1 
C1091: x37+x51-y37_51 <=1 
C1092: x37+x52-y37_52 <=1 
C1093: x37+x53 <=1 
C1094: x37+x54-y37_54 <=1 
C1095: x37+x57 <=1 
C1096: x37+x58-y37_58 <=1 
C1097: x37+x63 <=1 
C1098: x37+x64-y37_64 <=1 
C1099: x37+x65 <=1 
C1100: x37+x66-y37_66 <=1 
C1101: x38+x40-y38_40 <=1 
C1102: x38+x42-y38_42 <=1 
C1103: x38+x43 <=1 
C1104: x38+x48-y38_48 <=1 
C1105: x38+x50 <=1 
C1106: x38+x53-y38_53 <=1 
C1107: x38+x54 <=1 
C1108: x38+x57-y38_57 <=1 
C1109: x38+x63-y38_63 <=1 
C1110: x38+x64 <=1 
C1111: x38+x65-y38_65 <=1 
C1112: x38+x66 <=1 
C1113: x39+x40 <=1 
C1114: x39+x41-y39_41 <=1 
C1115: x39+x42-y39_42 <=1 
C1116: x39+x44-y39_44 <=1 
C1117: x39+x45-y39_45 <=1 
C1118: x39+x46 <=1 
C1119: x39+x51 <=1 
C1120: x39+x53 <=1 
C1121: x39+x54 <=1 
C1122: x39+x55 <=1 
C1123: x39+x56-y39_56 <=1 
C1124: x39+x58 <=1 
C1125: x39+x59 <=1 
C1126: x39+x60-y39_60 <=1 
C1127: x39+x62-y39_62 <=1 
C1128: x39+x63 <=1 
C1129: x40+x41 <=1 
C1130: x40+x42 <=1 
C1131: x40+x43 <=1 
C1132: x40+x44-y40_44 <=1 
C1133: x40+x46 <=1 
C1134: x40+x47 <=1 
C1135: x40+x50 <=1 
C1136: x40+x51 <=1 
C1137: x40+x53-y40_53 <=1 
C1138: x40+x55-y40_55 <=1 
C1139: x40+x56 <=1 
C1140: x40+x57-y40_57 <=1 
C1141: x40+x58-y40_58 <=1 
C1142: x40+x59-y40_59 <=1 
C1143: x40+x60-y40_60 <=1 
C1144: x40+x61-y40_61 <=1 
C1145: x40+x62 <=1 
C1146: x40+x66 <=1 
C1147: x41+x42-y41_42 <=1 
C1148: x41+x44 <=1 
C1149: x41+x50-y41_50 <=1 
C1150: x41+x53 <=1 
C1151: x41+x54-y41_54 <=1 
C1152: x41+x58-y41_58 <=1 
C1153: x41+x59 <=1 
C1154: x41+x60 <=1 
C1155: x41+x61 <=1 
C1156: x41+x62-y41_62 <=1 
C1157: x41+x63-y41_63 <=1 
C1158: x41+x64 <=1 
C1159: x41+x66 <=1 
C1160: x42+x43 <=1 
C1161: x42+x44 <=1 
C1162: x42+x45 <=1 
C1163: x42+x46-y42_46 <=1 
C1164: x42+x47-y42_47 <=1 
C1165: x42+x49-y42_49 <=1 
C1166: x42+x50-y42_50 <=1 
C1167: x42+x51-y42_51 <=1 
C1168: x42+x52 <=1 
C1169: x42+x54-y42_54 <=1 
C1170: x42+x55-y42_55 <=1 
C1171: x42+x56 <=1 
C1172: x42+x58-y42_58 <=1 
C1173: x42+x59-y42_59 <=1 
C1174: x42+x60-y42_60 <=1 
C1175: x42+x61-y42_61 <=1 
C1176: x42+x62 <=1 
C1177: x42+x65 <=1 
C1178: x42+x66 <=1 
C1179: x43+x45-y43_45 <=1 
C1180: x43+x46-y43_46 <=1 
C1181: x43+x47 <=1 
C1182: x43+x49 <=1 
C1183: x43+x51 <=1 
C1184: x43+x52 <=1 
C1185: x43+x54 <=1 
C1186: x43+x55 <=1 
C1187: x43+x59 <=1 
C1188: x43+x60 <=1 
C1189: x43+x64-y43_64 <=1 
C1190: x43+x65-y43_65 <=1 
C1191: x43+x66 <=1 
C1192: x44+x45 <=1 
C1193: x44+x46-y44_46 <=1 
C1194: x44+x51-y44_51 <=1 
C1195: x44+x52-y44_52 <=1 
C1196: x44+x53 <=1 
C1197: x44+x54 <=1 
C1198: x44+x55-y44_55 <=1 
C1199: x44+x57 <=1 
C1200: x44+x58-y44_58 <=1 
C1201: x44+x59-y44_59 <=1 
C1202: x44+x62-y44_62 <=1 
C1203: x44+x64 <=1 
C1204: x44+x65-y44_65 <=1 
C1205: x45+x46 <=1 
C1206: x45+x47-y45_47 <=1 
C1207: x45+x48-y45_48 <=1 
C1208: x45+x49 <=1 
C1209: x45+x50 <=1 
C1210: x45+x52-y45_52 <=1 
C1211: x45+x55-y45_55 <=1 
C1212: x45+x56 <=1 
C1213: x45+x57 <=1 
C1214: x45+x60 <=1 
C1215: x45+x65 <=1 
C1216: x45+x66-y45_66 <=1 
C1217: x46+x48 <=1 
C1218: x46+x51-y46_51 <=1 
C1219: x46+x54-y46_54 <=1 
C1220: x46+x56-y46_56 <=1 
C1221: x46+x59 <=1 
C1222: x46+x60-y46_60 <=1 
C1223: x46+x62-y46_62 <=1 
C1224: x46+x63-y46_63 <=1 
C1225: x46+x66-y46_66 <=1 
C1226: x47+x50 <=1 
C1227: x47+x55-y47_55 <=1 
C1228: x47+x56-y47_56 <=1 
C1229: x47+x59-y47_59 <=1 
C1230: x47+x63 <=1 
C1231: x47+x66 <=1 
C1232: x48+x49 <=1 
C1233: x48+x54 <=1 
C1234: x48+x56-y48_56 <=1 
C1235: x48+x57 <=1 
C1236: x48+x58-y48_58 <=1 
C1237: x48+x60 <=1 
C1238: x48+x61-y48_61 <=1 
C1239: x48+x62-y48_62 <=1 
C1240: x48+x63-y48_63 <=1 
C1241: x48+x65 <=1 
C1242: x49+x51 <=1 
C1243: x49+x52 <=1 
C1244: x49+x53 <=1 
C1245: x49+x54-y49_54 <=1 
C1246: x49+x55 <=1 
C1247: x49+x57 <=1 
C1248: x49+x58 <=1 
C1249: x49+x59 <=1 
C1250: x49+x60-y49_60 <=1 
C1251: x49+x61-y49_61 <=1 
C1252: x49+x62 <=1 
C1253: x49+x64 <=1 
C1254: x49+x66 <=1 
C1255: x50+x51 <=1 
C1256: x50+x52-y50_52 <=1 
C1257: x50+x56 <=1 
C1258: x50+x58 <=1 
C1259: x50+x60-y50_60 <=1 
C1260: x50+x62-y50_62 <=1 
C1261: x50+x63 <=1 
C1262: x50+x66-y50_66 <=1 
C1263: x51+x52-y51_52 <=1 
C1264: x51+x55-y51_55 <=1 
C1265: x51+x57-y51_57 <=1 
C1266: x51+x60-y51_60 <=1 
C1267: x51+x61-y51_61 <=1 
C1268: x51+x63 <=1 
C1269: x51+x65-y51_65 <=1 
C1270: x51+x66 <=1 
C1271: x52+x54 <=1 
C1272: x52+x55 <=1 
C1273: x52+x56 <=1 
C1274: x52+x57 <=1 
C1275: x52+x58-y52_58 <=1 
C1276: x52+x59 <=1 
C1277: x52+x60-y52_60 <=1 
C1278: x52+x61-y52_61 <=1 
C1279: x52+x65-y52_65 <=1 
C1280: x52+x66 <=1 
C1281: x53+x54 <=1 
C1282: x53+x56 <=1 
C1283: x53+x57-y53_57 <=1 
C1284: x53+x58-y53_58 <=1 
C1285: x53+x59 <=1 
C1286: x53+x60-y53_60 <=1 
C1287: x53+x61 <=1 
C1288: x53+x63 <=1 
C1289: x53+x64 <=1 
C1290: x54+x59-y54_59 <=1 
C1291: x54+x60-y54_60 <=1 
C1292: x54+x61 <=1 
C1293: x54+x63 <=1 
C1294: x54+x64 <=1 
C1295: x54+x65-y54_65 <=1 
C1296: x54+x66 <=1 
C1297: x55+x61 <=1 
C1298: x55+x64-y55_64 <=1 
C1299: x55+x65-y55_65 <=1 
C1300: x55+x66-y55_66 <=1 
C1301: x56+x59-y56_59 <=1 
C1302: x56+x60 <=1 
C1303: x56+x61-y56_61 <=1 
C1304: x56+x62 <=1 
C1305: x56+x63 <=1 
C1306: x56+x64 <=1 
C1307: x56+x65 <=1 
C1308: x57+x58 <=1 
C1309: x57+x60-y57_60 <=1 
C1310: x57+x62 <=1 
C1311: x57+x63 <=1 
C1312: x57+x64 <=1 
C1313: x58+x59-y58_59 <=1 
C1314: x58+x62-y58_62 <=1 
C1315: x58+x63 <=1 
C1316: x58+x65 <=1 
C1317: x58+x66 <=1 
C1318: x59+x63 <=1 
C1319: x59+x66 <=1 
C1320: x60+x61-y60_61 <=1 
C1321: x60+x63 <=1 
C1322: x60+x65 <=1 
C1323: x60+x66-y60_66 <=1 
C1324: x61+x62 <=1 
C1325: x61+x63 <=1 
C1326: x62+x63-y62_63 <=1 
C1327: x62+x65 <=1 
C1328: x63+x64-y63_64 <=1 
C1329: x63+x65-y63_65 <=1 
C1330: x63+x66-y63_66 <=1 
C1331: x64+x65 <=1 
C1332: x64+x66-y64_66 <=1 
C1333: x65+x66-y65_66 <=1 

binary
x0
x1
x2
x3
x4
x5
x6
x7
x8
x9
x10
x11
x12
x13
x14
x15
x16
x17
x18
x19
x20
x21
x22
x23
x24
x25
x26
x27
x28
x29
x30
x31
x32
x33
x34
x35
x36
x37
x38
x39
x40
x41
x42
x43
x44
x45
x46
x47
x48
x49
x50
x51
x52
x53
x54
x55
x56
x57
x58
x59
x60
x61
x62
x63
x64
x65
x66
